%%% static parameters %%%
timespan = 1;
Fact = [1];
Distr1 = [15];
Distr2 = [20];
Clients_N = [100];
Demand_W = [15];
Lt0 = [4];
Lt1 = [4];
SS_ = [0.85];
DS_D = [20];
K = [200];
MA = [500];
%%% dynamic parameters %%%
lost_ratio_sales_ret_th = 0.004305727781580262;
lost_ratio_sales_ret_w = 87;
lost_ratio_sales_dis_th = 0.006154780134474431;
lost_ratio_sales_dis_w = 30;
lost_ratio_sales_fac_th = 0.0011479734679895714;
lost_ratio_sales_fac_w = 21;
stock_customer_MA_mean_relative_th = 0.9266813844634194;
stock_customer_MA_mean_relative_w = 32;
stock_distributor_MA_mean_relative_th = 0.13982353961664362;
stock_distributor_MA_mean_relative_w = 90;
stock_retailer_MA_mean_relative_th = 0.296979674722222;
stock_retailer_MA_mean_relative_w = 38;
stock_factory_MA_mean_relative_th = 0.1646009458619918;
stock_factory_MA_mean_relative_w = 99;
